sat

(objectives
 ((bvadd PriceProv5 (bvadd PriceProv4 (bvadd PriceProv3 (bvadd PriceProv1 PriceProv2)))) (_ bv1059 32))
)
;; statistics
(
 :cnf-variables 2943
 :cnf-literals 14980
 :cnf-clauses 6270
 :sat-checks 12
 :sat-restarts 25
 :sat-decisions 47384
 :sat-random-decisions 17
 :sat-propagations 67952224
 :sat-theory-propagations 3
 :sat-watched-clauses-visited 74879038
 :sat-binary-watched-clauses-visited 47451106
 :sat-conflicts 7385
 :sat-theory-conflicts 0
 :theory-necessary-interface-equalities 0
 :theory-extra-interface-equalities 0
 :euf-total-calls 49164
 :euf-complete-calls 16
 :euf-conflicts 0
 :euf-implications 3
 :euf-explanations 0
 :euf-egraph-nodes-created 12402
 :euf-egraph-nodes-deleted 8234
 :euf-num-asserted-equalities 606643
 :euf-num-asserted-inequalities 494531
 :euf-num-merges 847410
 :euf-num-merges-undone 847410
 :euf-num-atoms-retold 1664
 :la-total-calls 49164
 :la-complete-calls 16
 :la-conflicts 0
 :la-implications 0
 :la-explanations 0
 :la-num-equalities-split 0
 :la-num-tableau-rows 0
 :la-num-tableau-variables 0
 :bv-total-calls 49164
 :bv-complete-calls 16
 :bv-conflicts 0
 :bv-implications 0
 :bv-explanations 0
 :fp-total-calls 49164
 :fp-complete-calls 16
 :fp-conflicts 0
 :fp-implications 0
 :fp-explanations 0
 :arr-total-calls 49164
 :arr-complete-calls 16
 :arr-conflicts 0
 :arr-implications 0
 :arr-explanations 0
 :arr-write-lemmas-added 0
 :arr-row-lemmas-added 0
 :arr-ext-lemmas-added 0
 :arr-const-lemmas-added 0
 :na-total-calls 49164
 :na-complete-calls 16
 :na-conflicts 0
 :na-implications 0
 :na-explanations 0
 :na-num_nonlinear_multiplications 0
 :na-num_axiom_checks 0
 :na-num_zero_lemmas 0
 :na-num_sign_lemmas 0
 :na-num_neutral_lemmas 0
 :na-num_proportionality_lemmas 0
 :na-num_bound_lemmas 0
 :na-num_tangent_lemmas 0
 :na-num_monotonicity_lemmas 0
 :na-num_sat_checks 0
 :na-axiom_check_time 0.000
 :na-sat_check_time 0.000
 :time-seconds 9.307
 :memory-mb 67.002
)
